\ SCIP STATISTICS
\   Problem name     : CapacitatedFacilityLocation-20-10
\   Variables        : 210 (210 binary, 0 integer, 0 implicit integer, 0 continuous)
\   Constraints      : 231
Minimize
 Obj: +602.892146495206 x0 +872.537063571348 x1 +534.42240750199 x2 +1257.99959967968 x3 +693.521796455583 x4
      +543.934955049954 x5 +1007.27717901804 x6 +1292.64420269286 x7 +996.967690125038 x8 +806.2862074334 x9
      +57.0049267800473 x10 +64.1429354590214 x11 +7.79268120516265 x12 +29.6531791974473 x13 +21.9941018598182 x14
      +42.0040684335348 x15 +73.9129743662592 x16 +24.5734357861531 x17 +24.6994875465561 x18 +77.1015564378969 x19
      +49.8473854603037 x20 +57.8020426351938 x21 +22.352545261569 x22 +40.3378502526149 x23 +11.2948647262946 x24
      +46.383182041876 x25 +61.0251022546299 x26 +17.4206662381036 x27 +23.7138307340434 x28 +66.1858197037653 x29
      +41.3529257421188 x30 +47.4551506160331 x31 +38.7471673662376 x32 +42.9720863834024 x33 +51.4821243685723 x34
      +21.105826709432 x35 +59.9900066636916 x36 +59.0088734363885 x37 +31.3790816988258 x38 +63.054528285349 x39
      +131.413513900362 x40 +120.491378189156 x41 +86.8498438568108 x42 +35.4827663037859 x43 +119.04595227682 x44
      +89.9645344022259 x45 +145.926028959678 x46 +105.291215789197 x47 +119.497280672017 x48 +131.277571439136 x49
      +29.6826831348738 x50 +43.7891378586361 x51 +37.1314627472214 x52 +53.083857494748 x53 +35.3445975342174 x54
      +32.201244618756 x55 +46.4130167468527 x56 +48.291013969561 x57 +11.2507966057308 x58 +56.3609618541391 x59
      +84.3531108669369 x60 +48.8019438249981 x61 +158.113956406544 x62 +131.212694735981 x63 +182.667765868941 x64
      +69.2930075284381 x65 +70.0747387374489 x66 +190.376417125331 x67 +145.443241024768 x68 +36.0061496189583 x69
      +230.186131828078 x70 +220.509915033922 x71 +126.493825215375 x72 +62.0695978643728 x73 +171.368774649455 x74
      +170.560359901576 x75 +256.820962596933 x76 +140.308936101679 x77 +190.361493795067 x78 +239.432200637926 x79
      +42.4127904302845 x80 +36.8584386756291 x81 +34.8710338295523 x82 +17.8633569242841 x83 +45.9978382803218 x84
      +28.0034131005056 x85 +45.9942912712633 x86 +42.7550845568214 x87 +43.1794021619233 x88 +39.5941244477044 x89
      +148.104065900428 x90 +169.577905971267 x91 +74.7391269722254 x92 +106.487806626464 x93 +113.503216686973 x94
      +94.6651542791907 x95 +203.716471669506 x96 +132.014334267939 x97 +75.5399033208032 x98 +213.791354478335 x99
      +46.3718493232382 x100 +41.7686120106151 x101 +33.2643538635316 x102 +15.2532624052443 x103 +44.6089315836028 x104
      +31.7558918101038 x105 +50.8421604604929 x106 +40.100936021012 x107 +43.9253942087564 x108 +45.0539290903686 x109
      +17.2541367331653 x110 +5.05205321124698 x111 +62.4001990481866 x112 +58.950216455715 x113 +69.1229505531118 x114
      +23.2812311835604 x115 +9.02312681670992 x116 +75.8390847102796 x117 +49.8965107063666 x118 +7.99855700715066 x119
      +14.9536766185789 x120 +32.5998704712222 x121 +54.9011041387306 x122 +65.0185778018024 x123 +56.7086729972097 x124
      +27.7161554525744 x125 +33.277146078315 x126 +69.4422928688498 x127 +30.0746939996805 x128 +46.0285722848363 x129
      +26.6594527140948 x130 +46.2453307060057 x131 +60.8881927511657 x132 +75.1548723185229 x133 +64.1052823253758 x134
      +32.3966800316743 x135 +50.8702917026166 x136 +79.9898593738699 x137 +30.073359896571 x138 +64.3968787585695 x139
      +92.0986603465136 x140 +87.8360221491822 x141 +49.1271612803415 x142 +13.5549488303598 x143 +71.7474781745326 x144
      +63.4983471780699 x145 +105.084736333023 x146 +60.6892163166135 x147 +75.8465643509946 x148 +97.6089365885585 x149
      +84.0720503323295 x150 +134.488574374709 x151 +225.387370999641 x152 +262.643849342717 x153 +218.159404927521 x154
      +148.852898156885 x155 +109.133476367693 x156 +262.083510392475 x157 +142.311989282386 x158 +162.411974915833 x159
      +93.4772311024979 x160 +53.4655547312734 x161 +175.978971989983 x162 +143.065533524584 x163 +209.861403781752 x164
      +56.7114254694626 x165 +92.2118913060737 x166 +220.173315340129 x167 +161.311393809829 x168 +61.3268054775302 x169
      +21.6666181328119 x170 +15.751594327108 x171 +29.9176210323159 x172 +21.7110412243394 x173 +37.4025643012739 x174
      +11.2077345232112 x175 +23.3728664045942 x176 +38.2213178737555 x177 +29.8943837777153 x178 +18.1667734397781 x179
      +107.691840683622 x180 +105.196560971922 x181 +48.9638070821905 x182 +11.616190579709 x183 +75.046803561954 x184
      +75.3494004094668 x185 +124.630050950586 x186 +61.0343488945431 x187 +82.9686335632663 x188 +117.943018943548 x189
      +132.900205612297 x190 +163.329736680464 x191 +54.3697320821377 x192 +119.109543866478 x193 +47.7728692904572 x194
      +113.204492710145 x195 +180.599271828317 x196 +82.5193627727117 x197 +25.0397726578573 x198 +199.423509057879 x199
      +165.199783283328 x200 +179.804027313458 x201 +40.0941676215331 x202 +68.5107216359963 x203 +90.0254771921209 x204
      +111.797108357887 x205 +212.719571610659 x206 +90.6437093687245 x207 +88.146014732891 x208 +216.884657675539 x209
Subject to
 c0: +1 x10 +1 x11 +1 x12 +1 x13 +1 x14 +1 x15 +1 x16 +1 x17 +1 x18 +1 x19 >= +1
 c1: +1 x20 +1 x21 +1 x22 +1 x23 +1 x24 +1 x25 +1 x26 +1 x27 +1 x28 +1 x29 >= +1
 c2: +1 x30 +1 x31 +1 x32 +1 x33 +1 x34 +1 x35 +1 x36 +1 x37 +1 x38 +1 x39 >= +1
 c3: +1 x40 +1 x41 +1 x42 +1 x43 +1 x44 +1 x45 +1 x46 +1 x47 +1 x48 +1 x49 >= +1
 c4: +1 x50 +1 x51 +1 x52 +1 x53 +1 x54 +1 x55 +1 x56 +1 x57 +1 x58 +1 x59 >= +1
 c5: +1 x60 +1 x61 +1 x62 +1 x63 +1 x64 +1 x65 +1 x66 +1 x67 +1 x68 +1 x69 >= +1
 c6: +1 x70 +1 x71 +1 x72 +1 x73 +1 x74 +1 x75 +1 x76 +1 x77 +1 x78 +1 x79 >= +1
 c7: +1 x80 +1 x81 +1 x82 +1 x83 +1 x84 +1 x85 +1 x86 +1 x87 +1 x88 +1 x89 >= +1
 c8: +1 x90 +1 x91 +1 x92 +1 x93 +1 x94 +1 x95 +1 x96 +1 x97 +1 x98 +1 x99 >= +1
 c9: +1 x100 +1 x101 +1 x102 +1 x103 +1 x104 +1 x105 +1 x106 +1 x107 +1 x108 +1 x109 >= +1
 c10: +1 x110 +1 x111 +1 x112 +1 x113 +1 x114 +1 x115 +1 x116 +1 x117 +1 x118 +1 x119 >= +1
 c11: +1 x120 +1 x121 +1 x122 +1 x123 +1 x124 +1 x125 +1 x126 +1 x127 +1 x128 +1 x129 >= +1
 c12: +1 x130 +1 x131 +1 x132 +1 x133 +1 x134 +1 x135 +1 x136 +1 x137 +1 x138 +1 x139 >= +1
 c13: +1 x140 +1 x141 +1 x142 +1 x143 +1 x144 +1 x145 +1 x146 +1 x147 +1 x148 +1 x149 >= +1
 c14: +1 x150 +1 x151 +1 x152 +1 x153 +1 x154 +1 x155 +1 x156 +1 x157 +1 x158 +1 x159 >= +1
 c15: +1 x160 +1 x161 +1 x162 +1 x163 +1 x164 +1 x165 +1 x166 +1 x167 +1 x168 +1 x169 >= +1
 c16: +1 x170 +1 x171 +1 x172 +1 x173 +1 x174 +1 x175 +1 x176 +1 x177 +1 x178 +1 x179 >= +1
 c17: +1 x180 +1 x181 +1 x182 +1 x183 +1 x184 +1 x185 +1 x186 +1 x187 +1 x188 +1 x189 >= +1
 c18: +1 x190 +1 x191 +1 x192 +1 x193 +1 x194 +1 x195 +1 x196 +1 x197 +1 x198 +1 x199 >= +1
 c19: +1 x200 +1 x201 +1 x202 +1 x203 +1 x204 +1 x205 +1 x206 +1 x207 +1 x208 +1 x209 >= +1
 c20: +10 x10 +6 x20 +12 x30 +17 x40 +9 x50 +19 x60 +25 x70 +6 x80 +34 x90 +6 x100 +8 x110 +10 x120 +13 x130
  +12 x140 +29 x150 +26 x160 +5 x170 +14 x180 +26 x190 +30 x200 -61 x0 <= +0
 c21: +10 x11 +6 x21 +12 x31 +17 x41 +9 x51 +19 x61 +25 x71 +6 x81 +34 x91 +6 x101 +8 x111 +10 x121 +13 x131
  +12 x141 +29 x151 +26 x161 +5 x171 +14 x181 +26 x191 +30 x201 -153 x1 <= +0
 c22: +10 x12 +6 x22 +12 x32 +17 x42 +9 x52 +19 x62 +25 x72 +6 x82 +34 x92 +6 x102 +8 x112 +10 x122 +13 x132
  +12 x142 +29 x152 +26 x162 +5 x172 +14 x182 +26 x192 +30 x202 -52 x2 <= +0
 c23: +10 x13 +6 x23 +12 x33 +17 x43 +9 x53 +19 x63 +25 x73 +6 x83 +34 x93 +6 x103 +8 x113 +10 x123 +13 x133
  +12 x143 +29 x153 +26 x163 +5 x173 +14 x183 +26 x193 +30 x203 -367 x3 <= +0
 c24: +10 x14 +6 x24 +12 x34 +17 x44 +9 x54 +19 x64 +25 x74 +6 x84 +34 x94 +6 x104 +8 x114 +10 x124 +13 x134
  +12 x144 +29 x154 +26 x164 +5 x174 +14 x184 +26 x194 +30 x204 -96 x4 <= +0
 c25: +10 x15 +6 x25 +12 x35 +17 x45 +9 x55 +19 x65 +25 x75 +6 x85 +34 x95 +6 x105 +8 x115 +10 x125 +13 x135
  +12 x145 +29 x155 +26 x165 +5 x175 +14 x185 +26 x195 +30 x205 -47 x5 <= +0
 c26: +10 x16 +6 x26 +12 x36 +17 x46 +9 x56 +19 x66 +25 x76 +6 x86 +34 x96 +6 x106 +8 x116 +10 x126 +13 x136
  +12 x146 +29 x156 +26 x166 +5 x176 +14 x186 +26 x196 +30 x206 -202 x6 <= +0
 c27: +10 x17 +6 x27 +12 x37 +17 x47 +9 x57 +19 x67 +25 x77 +6 x87 +34 x97 +6 x107 +8 x117 +10 x127 +13 x137
  +12 x147 +29 x157 +26 x167 +5 x177 +14 x187 +26 x197 +30 x207 -303 x7 <= +0
 c28: +10 x18 +6 x28 +12 x38 +17 x48 +9 x58 +19 x68 +25 x78 +6 x88 +34 x98 +6 x108 +8 x118 +10 x128 +13 x138
  +12 x148 +29 x158 +26 x168 +5 x178 +14 x188 +26 x198 +30 x208 -176 x8 <= +0
 c29: +10 x19 +6 x29 +12 x39 +17 x49 +9 x59 +19 x69 +25 x79 +6 x89 +34 x99 +6 x109 +8 x119 +10 x129 +13 x139
  +12 x149 +29 x159 +26 x169 +5 x179 +14 x189 +26 x199 +30 x209 -127 x9 <= +0
 c30: +61 x0 +153 x1 +52 x2 +367 x3 +96 x4 +47 x5 +202 x6 +303 x7 +176 x8 +127 x9 >= +317
 c31: +1 x10 -1 x0 <= +0
 c32: +1 x11 -1 x1 <= +0
 c33: +1 x12 -1 x2 <= +0
 c34: +1 x13 -1 x3 <= +0
 c35: +1 x14 -1 x4 <= +0
 c36: +1 x15 -1 x5 <= +0
 c37: +1 x16 -1 x6 <= +0
 c38: +1 x17 -1 x7 <= +0
 c39: +1 x18 -1 x8 <= +0
 c40: +1 x19 -1 x9 <= +0
 c41: +1 x20 -1 x0 <= +0
 c42: +1 x21 -1 x1 <= +0
 c43: +1 x22 -1 x2 <= +0
 c44: +1 x23 -1 x3 <= +0
 c45: +1 x24 -1 x4 <= +0
 c46: +1 x25 -1 x5 <= +0
 c47: +1 x26 -1 x6 <= +0
 c48: +1 x27 -1 x7 <= +0
 c49: +1 x28 -1 x8 <= +0
 c50: +1 x29 -1 x9 <= +0
 c51: +1 x30 -1 x0 <= +0
 c52: +1 x31 -1 x1 <= +0
 c53: +1 x32 -1 x2 <= +0
 c54: +1 x33 -1 x3 <= +0
 c55: +1 x34 -1 x4 <= +0
 c56: +1 x35 -1 x5 <= +0
 c57: +1 x36 -1 x6 <= +0
 c58: +1 x37 -1 x7 <= +0
 c59: +1 x38 -1 x8 <= +0
 c60: +1 x39 -1 x9 <= +0
 c61: +1 x40 -1 x0 <= +0
 c62: +1 x41 -1 x1 <= +0
 c63: +1 x42 -1 x2 <= +0
 c64: +1 x43 -1 x3 <= +0
 c65: +1 x44 -1 x4 <= +0
 c66: +1 x45 -1 x5 <= +0
 c67: +1 x46 -1 x6 <= +0
 c68: +1 x47 -1 x7 <= +0
 c69: +1 x48 -1 x8 <= +0
 c70: +1 x49 -1 x9 <= +0
 c71: +1 x50 -1 x0 <= +0
 c72: +1 x51 -1 x1 <= +0
 c73: +1 x52 -1 x2 <= +0
 c74: +1 x53 -1 x3 <= +0
 c75: +1 x54 -1 x4 <= +0
 c76: +1 x55 -1 x5 <= +0
 c77: +1 x56 -1 x6 <= +0
 c78: +1 x57 -1 x7 <= +0
 c79: +1 x58 -1 x8 <= +0
 c80: +1 x59 -1 x9 <= +0
 c81: +1 x60 -1 x0 <= +0
 c82: +1 x61 -1 x1 <= +0
 c83: +1 x62 -1 x2 <= +0
 c84: +1 x63 -1 x3 <= +0
 c85: +1 x64 -1 x4 <= +0
 c86: +1 x65 -1 x5 <= +0
 c87: +1 x66 -1 x6 <= +0
 c88: +1 x67 -1 x7 <= +0
 c89: +1 x68 -1 x8 <= +0
 c90: +1 x69 -1 x9 <= +0
 c91: +1 x70 -1 x0 <= +0
 c92: +1 x71 -1 x1 <= +0
 c93: +1 x72 -1 x2 <= +0
 c94: +1 x73 -1 x3 <= +0
 c95: +1 x74 -1 x4 <= +0
 c96: +1 x75 -1 x5 <= +0
 c97: +1 x76 -1 x6 <= +0
 c98: +1 x77 -1 x7 <= +0
 c99: +1 x78 -1 x8 <= +0
 c100: +1 x79 -1 x9 <= +0
 c101: +1 x80 -1 x0 <= +0
 c102: +1 x81 -1 x1 <= +0
 c103: +1 x82 -1 x2 <= +0
 c104: +1 x83 -1 x3 <= +0
 c105: +1 x84 -1 x4 <= +0
 c106: +1 x85 -1 x5 <= +0
 c107: +1 x86 -1 x6 <= +0
 c108: +1 x87 -1 x7 <= +0
 c109: +1 x88 -1 x8 <= +0
 c110: +1 x89 -1 x9 <= +0
 c111: +1 x90 -1 x0 <= +0
 c112: +1 x91 -1 x1 <= +0
 c113: +1 x92 -1 x2 <= +0
 c114: +1 x93 -1 x3 <= +0
 c115: +1 x94 -1 x4 <= +0
 c116: +1 x95 -1 x5 <= +0
 c117: +1 x96 -1 x6 <= +0
 c118: +1 x97 -1 x7 <= +0
 c119: +1 x98 -1 x8 <= +0
 c120: +1 x99 -1 x9 <= +0
 c121: +1 x100 -1 x0 <= +0
 c122: +1 x101 -1 x1 <= +0
 c123: +1 x102 -1 x2 <= +0
 c124: +1 x103 -1 x3 <= +0
 c125: +1 x104 -1 x4 <= +0
 c126: +1 x105 -1 x5 <= +0
 c127: +1 x106 -1 x6 <= +0
 c128: +1 x107 -1 x7 <= +0
 c129: +1 x108 -1 x8 <= +0
 c130: +1 x109 -1 x9 <= +0
 c131: +1 x110 -1 x0 <= +0
 c132: +1 x111 -1 x1 <= +0
 c133: +1 x112 -1 x2 <= +0
 c134: +1 x113 -1 x3 <= +0
 c135: +1 x114 -1 x4 <= +0
 c136: +1 x115 -1 x5 <= +0
 c137: +1 x116 -1 x6 <= +0
 c138: +1 x117 -1 x7 <= +0
 c139: +1 x118 -1 x8 <= +0
 c140: +1 x119 -1 x9 <= +0
 c141: +1 x120 -1 x0 <= +0
 c142: +1 x121 -1 x1 <= +0
 c143: +1 x122 -1 x2 <= +0
 c144: +1 x123 -1 x3 <= +0
 c145: +1 x124 -1 x4 <= +0
 c146: +1 x125 -1 x5 <= +0
 c147: +1 x126 -1 x6 <= +0
 c148: +1 x127 -1 x7 <= +0
 c149: +1 x128 -1 x8 <= +0
 c150: +1 x129 -1 x9 <= +0
 c151: +1 x130 -1 x0 <= +0
 c152: +1 x131 -1 x1 <= +0
 c153: +1 x132 -1 x2 <= +0
 c154: +1 x133 -1 x3 <= +0
 c155: +1 x134 -1 x4 <= +0
 c156: +1 x135 -1 x5 <= +0
 c157: +1 x136 -1 x6 <= +0
 c158: +1 x137 -1 x7 <= +0
 c159: +1 x138 -1 x8 <= +0
 c160: +1 x139 -1 x9 <= +0
 c161: +1 x140 -1 x0 <= +0
 c162: +1 x141 -1 x1 <= +0
 c163: +1 x142 -1 x2 <= +0
 c164: +1 x143 -1 x3 <= +0
 c165: +1 x144 -1 x4 <= +0
 c166: +1 x145 -1 x5 <= +0
 c167: +1 x146 -1 x6 <= +0
 c168: +1 x147 -1 x7 <= +0
 c169: +1 x148 -1 x8 <= +0
 c170: +1 x149 -1 x9 <= +0
 c171: +1 x150 -1 x0 <= +0
 c172: +1 x151 -1 x1 <= +0
 c173: +1 x152 -1 x2 <= +0
 c174: +1 x153 -1 x3 <= +0
 c175: +1 x154 -1 x4 <= +0
 c176: +1 x155 -1 x5 <= +0
 c177: +1 x156 -1 x6 <= +0
 c178: +1 x157 -1 x7 <= +0
 c179: +1 x158 -1 x8 <= +0
 c180: +1 x159 -1 x9 <= +0
 c181: +1 x160 -1 x0 <= +0
 c182: +1 x161 -1 x1 <= +0
 c183: +1 x162 -1 x2 <= +0
 c184: +1 x163 -1 x3 <= +0
 c185: +1 x164 -1 x4 <= +0
 c186: +1 x165 -1 x5 <= +0
 c187: +1 x166 -1 x6 <= +0
 c188: +1 x167 -1 x7 <= +0
 c189: +1 x168 -1 x8 <= +0
 c190: +1 x169 -1 x9 <= +0
 c191: +1 x170 -1 x0 <= +0
 c192: +1 x171 -1 x1 <= +0
 c193: +1 x172 -1 x2 <= +0
 c194: +1 x173 -1 x3 <= +0
 c195: +1 x174 -1 x4 <= +0
 c196: +1 x175 -1 x5 <= +0
 c197: +1 x176 -1 x6 <= +0
 c198: +1 x177 -1 x7 <= +0
 c199: +1 x178 -1 x8 <= +0
 c200: +1 x179 -1 x9 <= +0
 c201: +1 x180 -1 x0 <= +0
 c202: +1 x181 -1 x1 <= +0
 c203: +1 x182 -1 x2 <= +0
 c204: +1 x183 -1 x3 <= +0
 c205: +1 x184 -1 x4 <= +0
 c206: +1 x185 -1 x5 <= +0
 c207: +1 x186 -1 x6 <= +0
 c208: +1 x187 -1 x7 <= +0
 c209: +1 x188 -1 x8 <= +0
 c210: +1 x189 -1 x9 <= +0
 c211: +1 x190 -1 x0 <= +0
 c212: +1 x191 -1 x1 <= +0
 c213: +1 x192 -1 x2 <= +0
 c214: +1 x193 -1 x3 <= +0
 c215: +1 x194 -1 x4 <= +0
 c216: +1 x195 -1 x5 <= +0
 c217: +1 x196 -1 x6 <= +0
 c218: +1 x197 -1 x7 <= +0
 c219: +1 x198 -1 x8 <= +0
 c220: +1 x199 -1 x9 <= +0
 c221: +1 x200 -1 x0 <= +0
 c222: +1 x201 -1 x1 <= +0
 c223: +1 x202 -1 x2 <= +0
 c224: +1 x203 -1 x3 <= +0
 c225: +1 x204 -1 x4 <= +0
 c226: +1 x205 -1 x5 <= +0
 c227: +1 x206 -1 x6 <= +0
 c228: +1 x207 -1 x7 <= +0
 c229: +1 x208 -1 x8 <= +0
 c230: +1 x209 -1 x9 <= +0
Bounds
 0 <= x0 <= 1
 0 <= x1 <= 1
 0 <= x2 <= 1
 0 <= x3 <= 1
 0 <= x4 <= 1
 0 <= x5 <= 1
 0 <= x6 <= 1
 0 <= x7 <= 1
 0 <= x8 <= 1
 0 <= x9 <= 1
 0 <= x10 <= 1
 0 <= x11 <= 1
 0 <= x12 <= 1
 0 <= x13 <= 1
 0 <= x14 <= 1
 0 <= x15 <= 1
 0 <= x16 <= 1
 0 <= x17 <= 1
 0 <= x18 <= 1
 0 <= x19 <= 1
 0 <= x20 <= 1
 0 <= x21 <= 1
 0 <= x22 <= 1
 0 <= x23 <= 1
 0 <= x24 <= 1
 0 <= x25 <= 1
 0 <= x26 <= 1
 0 <= x27 <= 1
 0 <= x28 <= 1
 0 <= x29 <= 1
 0 <= x30 <= 1
 0 <= x31 <= 1
 0 <= x32 <= 1
 0 <= x33 <= 1
 0 <= x34 <= 1
 0 <= x35 <= 1
 0 <= x36 <= 1
 0 <= x37 <= 1
 0 <= x38 <= 1
 0 <= x39 <= 1
 0 <= x40 <= 1
 0 <= x41 <= 1
 0 <= x42 <= 1
 0 <= x43 <= 1
 0 <= x44 <= 1
 0 <= x45 <= 1
 0 <= x46 <= 1
 0 <= x47 <= 1
 0 <= x48 <= 1
 0 <= x49 <= 1
 0 <= x50 <= 1
 0 <= x51 <= 1
 0 <= x52 <= 1
 0 <= x53 <= 1
 0 <= x54 <= 1
 0 <= x55 <= 1
 0 <= x56 <= 1
 0 <= x57 <= 1
 0 <= x58 <= 1
 0 <= x59 <= 1
 0 <= x60 <= 1
 0 <= x61 <= 1
 0 <= x62 <= 1
 0 <= x63 <= 1
 0 <= x64 <= 1
 0 <= x65 <= 1
 0 <= x66 <= 1
 0 <= x67 <= 1
 0 <= x68 <= 1
 0 <= x69 <= 1
 0 <= x70 <= 1
 0 <= x71 <= 1
 0 <= x72 <= 1
 0 <= x73 <= 1
 0 <= x74 <= 1
 0 <= x75 <= 1
 0 <= x76 <= 1
 0 <= x77 <= 1
 0 <= x78 <= 1
 0 <= x79 <= 1
 0 <= x80 <= 1
 0 <= x81 <= 1
 0 <= x82 <= 1
 0 <= x83 <= 1
 0 <= x84 <= 1
 0 <= x85 <= 1
 0 <= x86 <= 1
 0 <= x87 <= 1
 0 <= x88 <= 1
 0 <= x89 <= 1
 0 <= x90 <= 1
 0 <= x91 <= 1
 0 <= x92 <= 1
 0 <= x93 <= 1
 0 <= x94 <= 1
 0 <= x95 <= 1
 0 <= x96 <= 1
 0 <= x97 <= 1
 0 <= x98 <= 1
 0 <= x99 <= 1
 0 <= x100 <= 1
 0 <= x101 <= 1
 0 <= x102 <= 1
 0 <= x103 <= 1
 0 <= x104 <= 1
 0 <= x105 <= 1
 0 <= x106 <= 1
 0 <= x107 <= 1
 0 <= x108 <= 1
 0 <= x109 <= 1
 0 <= x110 <= 1
 0 <= x111 <= 1
 0 <= x112 <= 1
 0 <= x113 <= 1
 0 <= x114 <= 1
 0 <= x115 <= 1
 0 <= x116 <= 1
 0 <= x117 <= 1
 0 <= x118 <= 1
 0 <= x119 <= 1
 0 <= x120 <= 1
 0 <= x121 <= 1
 0 <= x122 <= 1
 0 <= x123 <= 1
 0 <= x124 <= 1
 0 <= x125 <= 1
 0 <= x126 <= 1
 0 <= x127 <= 1
 0 <= x128 <= 1
 0 <= x129 <= 1
 0 <= x130 <= 1
 0 <= x131 <= 1
 0 <= x132 <= 1
 0 <= x133 <= 1
 0 <= x134 <= 1
 0 <= x135 <= 1
 0 <= x136 <= 1
 0 <= x137 <= 1
 0 <= x138 <= 1
 0 <= x139 <= 1
 0 <= x140 <= 1
 0 <= x141 <= 1
 0 <= x142 <= 1
 0 <= x143 <= 1
 0 <= x144 <= 1
 0 <= x145 <= 1
 0 <= x146 <= 1
 0 <= x147 <= 1
 0 <= x148 <= 1
 0 <= x149 <= 1
 0 <= x150 <= 1
 0 <= x151 <= 1
 0 <= x152 <= 1
 0 <= x153 <= 1
 0 <= x154 <= 1
 0 <= x155 <= 1
 0 <= x156 <= 1
 0 <= x157 <= 1
 0 <= x158 <= 1
 0 <= x159 <= 1
 0 <= x160 <= 1
 0 <= x161 <= 1
 0 <= x162 <= 1
 0 <= x163 <= 1
 0 <= x164 <= 1
 0 <= x165 <= 1
 0 <= x166 <= 1
 0 <= x167 <= 1
 0 <= x168 <= 1
 0 <= x169 <= 1
 0 <= x170 <= 1
 0 <= x171 <= 1
 0 <= x172 <= 1
 0 <= x173 <= 1
 0 <= x174 <= 1
 0 <= x175 <= 1
 0 <= x176 <= 1
 0 <= x177 <= 1
 0 <= x178 <= 1
 0 <= x179 <= 1
 0 <= x180 <= 1
 0 <= x181 <= 1
 0 <= x182 <= 1
 0 <= x183 <= 1
 0 <= x184 <= 1
 0 <= x185 <= 1
 0 <= x186 <= 1
 0 <= x187 <= 1
 0 <= x188 <= 1
 0 <= x189 <= 1
 0 <= x190 <= 1
 0 <= x191 <= 1
 0 <= x192 <= 1
 0 <= x193 <= 1
 0 <= x194 <= 1
 0 <= x195 <= 1
 0 <= x196 <= 1
 0 <= x197 <= 1
 0 <= x198 <= 1
 0 <= x199 <= 1
 0 <= x200 <= 1
 0 <= x201 <= 1
 0 <= x202 <= 1
 0 <= x203 <= 1
 0 <= x204 <= 1
 0 <= x205 <= 1
 0 <= x206 <= 1
 0 <= x207 <= 1
 0 <= x208 <= 1
 0 <= x209 <= 1
Binaries
 x0 x1 x2 x3 x4 x5 x6 x7 x8 x9 x10 x11 x12 x13 x14 x15 x16 x17 x18 x19 x20 x21 x22 x23 x24 x25 x26 x27
 x28 x29 x30 x31 x32 x33 x34 x35 x36 x37 x38 x39 x40 x41 x42 x43 x44 x45 x46 x47 x48 x49 x50 x51 x52 x53
 x54 x55 x56 x57 x58 x59 x60 x61 x62 x63 x64 x65 x66 x67 x68 x69 x70 x71 x72 x73 x74 x75 x76 x77 x78 x79
 x80 x81 x82 x83 x84 x85 x86 x87 x88 x89 x90 x91 x92 x93 x94 x95 x96 x97 x98 x99 x100 x101 x102 x103 x104
 x105 x106 x107 x108 x109 x110 x111 x112 x113 x114 x115 x116 x117 x118 x119 x120 x121 x122 x123 x124 x125
 x126 x127 x128 x129 x130 x131 x132 x133 x134 x135 x136 x137 x138 x139 x140 x141 x142 x143 x144 x145 x146
 x147 x148 x149 x150 x151 x152 x153 x154 x155 x156 x157 x158 x159 x160 x161 x162 x163 x164 x165 x166 x167
 x168 x169 x170 x171 x172 x173 x174 x175 x176 x177 x178 x179 x180 x181 x182 x183 x184 x185 x186 x187 x188
 x189 x190 x191 x192 x193 x194 x195 x196 x197 x198 x199 x200 x201 x202 x203 x204 x205 x206 x207 x208 x209
End
